Route #1: 17
Route #2: 14 11 38
Route #3: 15 20 37 36 47 5
Route #4: 49 24 18 25 31 39
Route #5: 16 23 43 41 42 22 1
Route #6: 9 32 44 3
Route #7: 29 48 21 28
Route #8: 45 27 13 19 35 8
Route #9: 7 10 12 40
Route #10: 30 2 33 6
Route #11: 4 34 46 26
Cost 739.837582073187